c Result of efficient AIG-to-CNF conversion using package CNF
p cnf 190 624
2 -3 116 0
2 3 -116 0
-2 3 116 0
-2 -3 -116 0
3 -4 114 0
3 4 -114 0
-3 4 114 0
-3 -4 -114 0
4 -5 -36 0
4 159 -5 0
4 159 -36 0
-4 -159 5 0
-4 5 36 0
-4 -159 36 0
-5 -6 -7 0
-5 6 7 0
5 6 -7 0
5 -6 7 0
6 127 -159 0
6 -127 159 0
-6 -127 -159 0
-6 127 159 0
7 -128 -160 0
7 -160 -8 0
7 -128 -8 0
-7 128 8 0
-7 160 8 0
-7 128 160 0
8 -129 -161 0
8 -161 -9 0
8 -129 -9 0
-8 129 9 0
-8 161 9 0
-8 129 161 0
9 -130 -162 0
9 -162 -10 0
9 -130 -10 0
-9 130 10 0
-9 162 10 0
-9 130 162 0
10 -131 -163 0
10 -163 -11 0
10 -131 -11 0
-10 131 11 0
-10 163 11 0
-10 131 163 0
11 -132 -164 0
11 -164 -12 0
11 -132 -12 0
-11 132 12 0
-11 164 12 0
-11 132 164 0
12 -133 -165 0
12 -165 -13 0
12 -133 -13 0
-12 133 13 0
-12 165 13 0
-12 133 165 0
13 -134 -166 0
13 -166 -14 0
13 -134 -14 0
-13 134 14 0
-13 166 14 0
-13 134 166 0
14 -135 -167 0
14 -167 -15 0
14 -135 -15 0
-14 135 15 0
-14 167 15 0
-14 135 167 0
15 -136 -168 0
15 -168 -16 0
15 -136 -16 0
-15 136 16 0
-15 168 16 0
-15 136 168 0
16 -137 -169 0
16 -169 -17 0
16 -137 -17 0
-16 137 17 0
-16 169 17 0
-16 137 169 0
17 -138 -170 0
17 -170 -18 0
17 -138 -18 0
-17 138 18 0
-17 170 18 0
-17 138 170 0
18 -139 -171 0
18 -171 -19 0
18 -139 -19 0
-18 139 19 0
-18 171 19 0
-18 139 171 0
19 -140 -172 0
19 -172 -20 0
19 -140 -20 0
-19 140 20 0
-19 172 20 0
-19 140 172 0
20 -141 -173 0
20 -173 -21 0
20 -141 -21 0
-20 141 21 0
-20 173 21 0
-20 141 173 0
21 -142 -174 0
21 -174 -22 0
21 -142 -22 0
-21 142 22 0
-21 174 22 0
-21 142 174 0
22 -143 -175 0
22 -175 -23 0
22 -143 -23 0
-22 143 23 0
-22 175 23 0
-22 143 175 0
23 -144 -176 0
23 -176 -24 0
23 -144 -24 0
-23 144 24 0
-23 176 24 0
-23 144 176 0
24 -145 -177 0
24 -177 -25 0
24 -145 -25 0
-24 145 25 0
-24 177 25 0
-24 145 177 0
25 -146 -178 0
25 -178 -26 0
25 -146 -26 0
-25 146 26 0
-25 178 26 0
-25 146 178 0
26 -147 -179 0
26 -179 -27 0
26 -147 -27 0
-26 147 27 0
-26 179 27 0
-26 147 179 0
27 -148 -180 0
27 -180 -28 0
27 -148 -28 0
-27 148 28 0
-27 180 28 0
-27 148 180 0
28 -149 -181 0
28 -181 -29 0
28 -149 -29 0
-28 149 29 0
-28 181 29 0
-28 149 181 0
29 -150 -182 0
29 -182 -30 0
29 -150 -30 0
-29 150 30 0
-29 182 30 0
-29 150 182 0
30 -151 -183 0
30 -183 -31 0
30 -151 -31 0
-30 151 31 0
-30 183 31 0
-30 151 183 0
31 -152 -184 0
31 -184 -32 0
31 -152 -32 0
-31 152 32 0
-31 184 32 0
-31 152 184 0
32 -153 -185 0
32 -185 -33 0
32 -153 -33 0
-32 153 33 0
-32 185 33 0
-32 153 185 0
33 -154 -186 0
33 -186 -34 0
33 -154 -34 0
-33 186 34 0
-33 154 186 0
-33 154 34 0
-34 155 35 0
-34 187 35 0
-34 155 187 0
34 -155 -187 0
34 -187 -35 0
34 -155 -35 0
35 -156 -188 0
35 -156 -157 -189 0
35 -157 -188 -189 0
-35 188 189 0
-35 156 157 0
-35 156 188 0
-35 157 188 0
-35 156 189 0
36 -37 -39 0
36 160 -37 0
36 160 -39 0
-36 -160 37 0
-36 37 39 0
-36 -160 39 0
-37 -8 -38 0
-37 8 38 0
37 8 -38 0
37 -8 38 0
38 128 -160 0
38 -128 160 0
-38 -128 -160 0
-38 128 160 0
39 -40 -42 0
39 161 -40 0
39 161 -42 0
-39 -161 40 0
-39 40 42 0
-39 -161 42 0
-40 -9 -41 0
-40 9 41 0
40 9 -41 0
40 -9 41 0
41 129 -161 0
41 -129 161 0
-41 -129 -161 0
-41 129 161 0
42 -43 -45 0
42 162 -43 0
42 162 -45 0
-42 -162 43 0
-42 43 45 0
-42 -162 45 0
-43 -10 -44 0
-43 10 44 0
43 10 -44 0
43 -10 44 0
44 130 -162 0
44 -130 162 0
-44 -130 -162 0
-44 130 162 0
45 -46 -48 0
45 163 -46 0
45 163 -48 0
-45 -163 46 0
-45 46 48 0
-45 -163 48 0
-46 -11 -47 0
-46 11 47 0
46 11 -47 0
46 -11 47 0
47 131 -163 0
47 -131 163 0
-47 -131 -163 0
-47 131 163 0
48 -49 -51 0
48 164 -49 0
48 164 -51 0
-48 -164 49 0
-48 49 51 0
-48 -164 51 0
-49 -12 -50 0
-49 12 50 0
49 12 -50 0
49 -12 50 0
50 132 -164 0
50 -132 164 0
-50 -132 -164 0
-50 132 164 0
51 -52 -54 0
51 165 -52 0
51 165 -54 0
-51 -165 52 0
-51 52 54 0
-51 -165 54 0
-52 -13 -53 0
-52 13 53 0
52 13 -53 0
52 -13 53 0
53 133 -165 0
53 -133 165 0
-53 -133 -165 0
-53 133 165 0
54 -55 -57 0
54 166 -55 0
54 166 -57 0
-54 -166 55 0
-54 55 57 0
-54 -166 57 0
-55 -14 -56 0
-55 14 56 0
55 14 -56 0
55 -14 56 0
56 134 -166 0
56 -134 166 0
-56 -134 -166 0
-56 134 166 0
57 -58 -60 0
57 167 -58 0
57 167 -60 0
-57 -167 58 0
-57 58 60 0
-57 -167 60 0
-58 -15 -59 0
-58 15 59 0
58 15 -59 0
58 -15 59 0
59 135 -167 0
59 -135 167 0
-59 -135 -167 0
-59 135 167 0
60 -61 -63 0
60 168 -61 0
60 168 -63 0
-60 -168 61 0
-60 61 63 0
-60 -168 63 0
-61 -16 -62 0
-61 16 62 0
61 16 -62 0
61 -16 62 0
62 136 -168 0
62 -136 168 0
-62 -136 -168 0
-62 136 168 0
63 -64 -66 0
63 169 -64 0
63 169 -66 0
-63 -169 64 0
-63 64 66 0
-63 -169 66 0
-64 -17 -65 0
-64 17 65 0
64 17 -65 0
64 -17 65 0
65 137 -169 0
65 -137 169 0
-65 -137 -169 0
-65 137 169 0
66 -67 -69 0
66 170 -67 0
66 170 -69 0
-66 -170 67 0
-66 67 69 0
-66 -170 69 0
-67 -18 -68 0
-67 18 68 0
67 18 -68 0
67 -18 68 0
68 138 -170 0
68 -138 170 0
-68 -138 -170 0
-68 138 170 0
69 -70 -72 0
69 171 -70 0
69 171 -72 0
-69 -171 70 0
-69 70 72 0
-69 -171 72 0
-70 -19 -71 0
-70 19 71 0
70 19 -71 0
70 -19 71 0
71 139 -171 0
71 -139 171 0
-71 -139 -171 0
-71 139 171 0
72 -73 -75 0
72 172 -73 0
72 172 -75 0
-72 -172 73 0
-72 73 75 0
-72 -172 75 0
-73 -20 -74 0
-73 20 74 0
73 20 -74 0
73 -20 74 0
74 140 -172 0
74 -140 172 0
-74 -140 -172 0
-74 140 172 0
75 -76 -78 0
75 173 -76 0
75 173 -78 0
-75 -173 76 0
-75 76 78 0
-75 -173 78 0
-76 -21 -77 0
-76 21 77 0
76 21 -77 0
76 -21 77 0
77 141 -173 0
77 -141 173 0
-77 -141 -173 0
-77 141 173 0
78 -79 -81 0
78 174 -79 0
78 174 -81 0
-78 -174 79 0
-78 79 81 0
-78 -174 81 0
-79 -22 -80 0
-79 22 80 0
79 22 -80 0
79 -22 80 0
80 142 -174 0
80 -142 174 0
-80 -142 -174 0
-80 142 174 0
81 -82 -84 0
81 175 -82 0
81 175 -84 0
-81 -175 82 0
-81 82 84 0
-81 -175 84 0
-82 -23 -83 0
-82 23 83 0
82 23 -83 0
82 -23 83 0
83 143 -175 0
83 -143 175 0
-83 -143 -175 0
-83 143 175 0
84 -85 -87 0
84 176 -85 0
84 176 -87 0
-84 -176 85 0
-84 85 87 0
-84 -176 87 0
-85 -24 -86 0
-85 24 86 0
85 24 -86 0
85 -24 86 0
86 144 -176 0
86 -144 176 0
-86 -144 -176 0
-86 144 176 0
87 -88 -90 0
87 177 -88 0
87 177 -90 0
-87 -177 88 0
-87 88 90 0
-87 -177 90 0
-88 -25 -89 0
-88 25 89 0
88 25 -89 0
88 -25 89 0
89 145 -177 0
89 -145 177 0
-89 -145 -177 0
-89 145 177 0
90 -91 -93 0
90 178 -91 0
90 178 -93 0
-90 -178 91 0
-90 91 93 0
-90 -178 93 0
-91 -26 -92 0
-91 26 92 0
91 26 -92 0
91 -26 92 0
92 146 -178 0
92 -146 178 0
-92 -146 -178 0
-92 146 178 0
93 -94 -96 0
93 179 -94 0
93 179 -96 0
-93 -179 94 0
-93 94 96 0
-93 -179 96 0
-94 -27 -95 0
-94 27 95 0
94 27 -95 0
94 -27 95 0
95 147 -179 0
95 -147 179 0
-95 -147 -179 0
-95 147 179 0
96 -97 -99 0
96 180 -97 0
96 180 -99 0
-96 -180 97 0
-96 97 99 0
-96 -180 99 0
-97 -28 -98 0
-97 28 98 0
97 28 -98 0
97 -28 98 0
98 148 -180 0
98 -148 180 0
-98 -148 -180 0
-98 148 180 0
99 -100 -102 0
99 181 -100 0
99 181 -102 0
-99 -181 100 0
-99 100 102 0
-99 -181 102 0
-100 -29 -101 0
-100 29 101 0
100 29 -101 0
100 -29 101 0
101 149 -181 0
101 -149 181 0
-101 -149 -181 0
-101 149 181 0
102 -103 -105 0
102 182 -103 0
102 182 -105 0
-102 -182 103 0
-102 103 105 0
-102 -182 105 0
-103 -30 -104 0
-103 30 104 0
103 30 -104 0
103 -30 104 0
104 150 -182 0
104 -150 182 0
-104 -150 -182 0
-104 150 182 0
105 -106 -108 0
105 183 -106 0
105 183 -108 0
-105 -183 106 0
-105 106 108 0
-105 -183 108 0
-106 -31 -107 0
-106 31 107 0
106 31 -107 0
106 -31 107 0
107 151 -183 0
107 -151 183 0
-107 -151 -183 0
-107 151 183 0
108 -109 -111 0
108 184 -109 0
108 184 -111 0
-108 -184 109 0
-108 109 111 0
-108 -184 111 0
-109 -32 -110 0
-109 32 110 0
109 32 -110 0
109 -32 110 0
110 152 -184 0
110 -152 184 0
-110 -152 -184 0
-110 152 184 0
111 -153 185 33 0
111 153 33 -112 0
111 153 185 -33 0
-111 -153 -33 0
-111 153 33 112 0
-111 -153 -185 0
-111 -185 -33 0
-112 155 156 157 113 0
112 -113 0
112 -157 0
112 -155 0
112 -156 0
-113 154 34 0
113 -154 0
113 -34 0
-114 -126 -115 0
-114 126 115 0
114 126 -115 0
114 -126 115 0
115 -127 -159 0
115 -159 -7 0
115 -127 -7 0
-115 127 7 0
-115 159 7 0
-115 127 159 0
-116 126 117 0
-116 -126 -117 0
116 -126 117 0
116 126 -117 0
-117 127 128 129 118 0
117 -118 0
117 -129 0
117 -127 0
117 -128 0
-118 130 131 132 119 0
118 -119 0
118 -132 0
118 -130 0
118 -131 0
-119 133 134 135 120 0
119 -120 0
119 -135 0
119 -133 0
119 -134 0
-120 136 137 138 121 0
120 -121 0
120 -138 0
120 -136 0
120 -137 0
-121 139 140 141 122 0
121 -122 0
121 -141 0
121 -139 0
121 -140 0
-122 142 143 144 123 0
122 -123 0
122 -144 0
122 -142 0
122 -143 0
-123 145 146 147 124 0
123 -124 0
123 -147 0
123 -145 0
123 -146 0
-124 148 149 150 125 0
124 -125 0
124 -150 0
124 -148 0
124 -149 0
-125 151 152 153 112 0
125 -112 0
125 -153 0
125 -151 0
125 -152 0
-190 0
2 0

